language ESSENCE' 1.0

letting jobs = 102
letting horizon = 807
letting resourcesRenew = 2
letting resourcesNonrenew = 2
letting resourceLimits = [59, 62, 550, 591]
letting successors = [[2, 3, 4, 5, 6, 7, 8, 9, 10, 11, 12, 13, 15, 16, 17, 18, 19, 20, 21, 22, 23, 24, 25, 26, 27, 28, 29, 30, 31, 35, 39, 41, 46, 59], [86, 84, 83, 74, 73, 72, 64, 56, 50, 44, 38, 34, 14], [101, 87, 72, 65, 62, 61, 52, 51, 50, 47, 42, 37, 36, 33, 32], [86, 73, 55, 53, 49, 47, 37, 14], [93, 91, 88, 87, 85, 83, 82, 73, 70, 67, 65, 63, 62, 58, 56, 55, 54, 51, 47, 43, 42], [86, 69, 68, 63, 50, 48, 37, 36, 14], [92, 91, 88, 87, 86, 85, 83, 79, 72, 71, 70, 66, 65, 63, 62, 61, 60, 56, 51, 42, 32], [93, 92, 91, 90, 88, 87, 86, 85, 84, 83, 80, 73, 72, 71, 70, 68, 67, 66, 64, 63, 62, 60, 58, 56, 43], [96, 87, 86, 72, 64, 63, 62, 61, 54, 50, 48, 42, 40, 37], [101, 99, 98, 92, 91, 84, 83, 82, 81, 79, 74, 73, 71, 67, 63, 61, 53, 50, 42], [93, 87, 86, 85, 83, 79, 74, 71, 66, 65, 64, 63, 61, 57, 56, 55, 42], [99, 96, 92, 86, 85, 82, 79, 71, 67, 66, 63, 62, 57, 50, 48, 42], [100, 99, 97, 96, 92, 89, 87, 86, 85, 82, 71, 67, 65, 64, 62, 54, 50, 49], [100, 99, 93, 92, 90, 88, 85, 82, 81, 80, 71, 70, 66, 65, 62, 60, 57, 54, 43], [99, 98, 96, 94, 91, 87, 86, 84, 81, 79, 72, 70, 65, 63, 61, 50, 42], [100, 98, 94, 93, 92, 91, 90, 89, 88, 87, 86, 83, 80, 79, 73, 68, 64, 63, 62, 61, 60, 56], [101, 98, 90, 89, 87, 86, 84, 83, 79, 73, 69, 68, 65, 64, 63, 61, 56, 50], [98, 97, 92, 91, 90, 89, 87, 86, 79, 71, 66, 65, 64, 58, 56, 50], [100, 98, 96, 95, 94, 93, 92, 91, 90, 88, 87, 83, 82, 81, 80, 79, 78, 72, 70, 68, 67, 66, 65, 63, 60], [99, 98, 97, 96, 93, 91, 88, 86, 81, 79, 72, 62, 61, 60, 55, 42], [100, 93, 92, 90, 86, 71, 69, 65, 57, 54, 51, 45], [92, 89, 88, 77, 70, 69, 68, 66, 61, 60, 47, 40], [99, 95, 93, 92, 91, 90, 88, 85, 84, 81, 77, 70, 69, 68, 66, 63, 62, 60, 47], [100, 98, 93, 92, 90, 87, 80, 79, 71, 69, 68, 63, 62, 60, 57, 56], [99, 97, 96, 91, 90, 87, 85, 68, 62, 61, 55, 54, 50], [99, 98, 95, 94, 93, 92, 91, 90, 89, 87, 86, 81, 80, 79, 78, 70, 69, 62, 58], [101, 100, 99, 96, 93, 92, 88, 83, 81, 80, 79, 77, 72, 71, 63, 61], [100, 99, 94, 93, 92, 89, 86, 81, 73, 70, 69, 68, 64, 61, 54], [98, 97, 94, 93, 92, 86, 79, 74, 70, 69, 64, 62, 61, 58], [93, 92, 90, 87, 83, 78, 70, 68, 64, 56, 54], [100, 99, 98, 97, 96, 95, 92, 89, 86, 81, 80, 79, 72, 70, 65], [100, 97, 96, 94, 93, 90, 89, 84, 81, 80, 78, 77, 69, 68], [98, 92, 91, 89, 81, 80, 78, 75, 69, 64, 58], [96, 93, 79, 78, 70, 63, 60, 55], [100, 99, 98, 93, 81, 80, 78, 68, 64, 63], [100, 99, 98, 92, 84, 81, 80, 70, 67, 66], [100, 99, 95, 94, 85, 84, 79, 78, 75, 67], [100, 93, 88, 87, 85, 81, 79, 77, 75, 69], [98, 94, 88, 80, 69, 67, 62, 60], [100, 99, 97, 91, 90, 85, 81, 79, 78, 76], [99, 97, 87, 85, 80, 79, 77, 76, 68], [100, 90, 89, 78, 77, 69, 68], [98, 97, 96, 79, 76, 75, 61], [97, 90, 80, 79, 70, 68, 62], [99, 97, 96, 91, 88, 81, 79, 77], [98, 96, 91, 81, 80, 78, 77, 76], [97, 96, 80, 79, 76, 75, 71], [98, 97, 94, 89, 84, 81, 70], [91, 90, 81, 78, 77, 75, 69], [93, 88, 80, 78, 60], [98, 80, 76, 75, 64], [91, 89, 86, 78, 77, 75], [89, 87, 78, 77, 68], [98, 95, 79, 76, 75], [95, 94, 92, 80, 77], [99, 96, 81, 75], [91, 89, 78, 76], [100, 96, 77], [96, 95, 77], [76, 75], [95, 78], [76, 75], [97, 76], [95, 77], [77, 76], [76, 75], [77, 76], [75], [76], [75], [94], [75], [75], [88], [102], [102], [102], [102], [102], [102], [102], [102], [102], [102], [102], [102], [102], [102], [102], [102], [102], [102], [102], [102], [102], [102], [102], [102], [102], [102], [102], []]
letting durations = [[0], [3, 8, 10], [3, 6, 10], [8, 9, 10], [1, 4, 7], [1, 4, 7], [4, 5, 9], [2, 9, 10], [1, 7, 10], [1, 3, 6], [1, 7, 8], [5, 6, 9], [3, 4, 8], [1, 2, 7], [2, 6, 10], [7, 9, 10], [3, 4, 6], [1, 9, 10], [2, 8, 9], [7, 8, 10], [2, 5, 6], [7, 8, 9], [4, 5, 9], [4, 5, 6], [1, 2, 10], [2, 4, 5], [1, 3, 5], [3, 4, 7], [3, 5, 6], [5, 6, 10], [5, 7, 8], [2, 3, 7], [4, 5, 9], [5, 6, 9], [2, 3, 5], [6, 7, 10], [1, 4, 9], [4, 5, 6], [2, 5, 7], [3, 4, 9], [2, 6, 9], [1, 9, 10], [4, 7, 8], [2, 5, 10], [2, 6, 7], [2, 8, 9], [1, 2, 5], [3, 4, 10], [8, 9, 10], [2, 9, 10], [4, 7, 9], [3, 6, 7], [3, 8, 9], [1, 5, 9], [2, 5, 8], [1, 4, 8], [3, 4, 9], [3, 5, 6], [5, 6, 9], [2, 3, 4], [2, 3, 9], [6, 7, 8], [3, 9, 10], [4, 9, 10], [1, 2, 4], [4, 5, 7], [2, 3, 7], [6, 8, 10], [1, 6, 7], [1, 2, 3], [5, 6, 9], [2, 6, 10], [1, 2, 3], [4, 5, 9], [4, 9, 10], [6, 7, 9], [2, 5, 6], [2, 7, 8], [3, 4, 10], [1, 2, 8], [1, 5, 9], [4, 5, 7], [2, 7, 8], [1, 4, 5], [3, 8, 9], [3, 4, 5], [1, 3, 8], [2, 3, 7], [4, 7, 9], [1, 2, 5], [1, 4, 10], [2, 4, 9], [2, 6, 7], [2, 3, 10], [1, 5, 9], [5, 6, 7], [3, 6, 8], [4, 6, 10], [4, 7, 8], [3, 5, 6], [4, 5, 10], [0]]
letting resourceUsage = [[[0, 0, 0, 0]], [[10, 9, 7, 7], [10, 9, 6, 5], [10, 9, 6, 1]], [[2, 10, 7, 7], [2, 9, 4, 7], [1, 8, 3, 7]], [[5, 8, 10, 9], [4, 3, 6, 8], [4, 1, 3, 7]], [[9, 8, 8, 9], [4, 7, 7, 9], [3, 7, 7, 7]], [[6, 9, 6, 9], [5, 7, 6, 6], [2, 7, 5, 5]], [[1, 9, 6, 8], [1, 7, 3, 8], [1, 5, 1, 6]], [[10, 3, 9, 6], [10, 2, 7, 4], [10, 1, 7, 4]], [[2, 6, 8, 5], [2, 5, 6, 5], [2, 5, 6, 4]], [[8, 3, 3, 8], [7, 3, 3, 6], [6, 2, 3, 6]], [[7, 5, 5, 9], [4, 4, 4, 8], [2, 3, 1, 8]], [[5, 4, 7, 8], [4, 2, 6, 7], [1, 1, 5, 6]], [[8, 8, 8, 9], [6, 6, 7, 7], [6, 6, 7, 3]], [[6, 8, 3, 7], [5, 6, 3, 5], [3, 5, 2, 5]], [[5, 6, 6, 7], [5, 6, 3, 7], [4, 2, 3, 7]], [[2, 7, 8, 8], [2, 7, 7, 8], [2, 7, 6, 5]], [[8, 7, 5, 2], [6, 6, 4, 1], [6, 6, 2, 1]], [[4, 3, 7, 7], [2, 3, 4, 4], [1, 3, 2, 2]], [[8, 9, 1, 7], [4, 6, 1, 5], [4, 3, 1, 4]], [[4, 7, 7, 4], [3, 3, 5, 3], [3, 1, 2, 2]], [[9, 4, 7, 3], [8, 2, 5, 1], [8, 2, 3, 1]], [[7, 3, 7, 8], [5, 2, 7, 6], [2, 2, 7, 3]], [[6, 10, 2, 5], [6, 10, 1, 3], [6, 10, 1, 2]], [[9, 3, 9, 7], [9, 2, 8, 4], [8, 1, 6, 4]], [[5, 9, 6, 7], [4, 8, 5, 5], [3, 7, 4, 4]], [[5, 8, 5, 2], [3, 8, 4, 2], [3, 7, 3, 2]], [[8, 9, 7, 9], [8, 5, 7, 8], [4, 2, 7, 6]], [[5, 9, 5, 6], [3, 5, 5, 4], [3, 3, 3, 2]], [[6, 6, 7, 9], [3, 4, 5, 6], [1, 4, 2, 2]], [[9, 10, 7, 4], [8, 8, 5, 3], [7, 8, 3, 2]], [[5, 2, 6, 2], [5, 2, 4, 2], [3, 2, 4, 1]], [[6, 9, 5, 5], [6, 8, 4, 3], [2, 7, 2, 2]], [[7, 3, 9, 2], [5, 3, 6, 2], [2, 2, 6, 2]], [[6, 5, 2, 4], [5, 3, 2, 4], [2, 3, 2, 4]], [[8, 2, 10, 8], [5, 2, 8, 7], [5, 2, 8, 5]], [[3, 8, 5, 6], [3, 4, 3, 5], [2, 3, 2, 5]], [[6, 5, 5, 9], [6, 4, 4, 7], [6, 2, 2, 6]], [[6, 9, 8, 4], [5, 5, 7, 3], [4, 3, 3, 2]], [[4, 2, 10, 6], [2, 2, 9, 5], [2, 2, 9, 4]], [[9, 4, 5, 7], [8, 3, 5, 4], [7, 2, 2, 3]], [[3, 8, 8, 7], [3, 7, 8, 7], [2, 3, 8, 5]], [[7, 5, 3, 7], [7, 5, 3, 6], [7, 5, 3, 3]], [[7, 7, 10, 7], [7, 5, 7, 7], [3, 1, 6, 7]], [[9, 4, 3, 7], [8, 3, 3, 3], [8, 2, 3, 1]], [[3, 5, 5, 9], [3, 2, 5, 9], [2, 2, 5, 9]], [[7, 7, 5, 9], [5, 6, 3, 9], [3, 5, 2, 8]], [[3, 8, 2, 7], [3, 6, 1, 3], [2, 6, 1, 2]], [[3, 9, 7, 5], [3, 5, 7, 5], [3, 1, 5, 4]], [[8, 10, 4, 1], [8, 9, 4, 1], [8, 9, 1, 1]], [[9, 3, 3, 9], [7, 3, 3, 10], [7, 3, 3, 9]], [[3, 10, 10, 6], [3, 9, 9, 2], [1, 8, 8, 2]], [[7, 10, 6, 6], [6, 9, 4, 6], [4, 9, 1, 5]], [[5, 8, 2, 2], [5, 6, 2, 2], [3, 6, 2, 2]], [[7, 7, 3, 8], [6, 4, 3, 5], [5, 3, 2, 4]], [[9, 7, 9, 7], [8, 7, 9, 6], [7, 7, 9, 6]], [[10, 6, 9, 2], [8, 5, 6, 1], [5, 3, 5, 1]], [[8, 10, 7, 7], [6, 6, 7, 6], [4, 3, 7, 3]], [[9, 9, 4, 6], [5, 5, 2, 5], [4, 5, 2, 4]], [[9, 5, 9, 4], [9, 4, 7, 4], [9, 2, 5, 3]], [[9, 8, 4, 4], [8, 7, 4, 4], [8, 7, 4, 2]], [[5, 7, 9, 10], [3, 6, 9, 10], [3, 4, 9, 10]], [[5, 7, 7, 1], [4, 5, 7, 2], [4, 5, 7, 1]], [[10, 4, 6, 7], [8, 3, 4, 7], [8, 3, 3, 4]], [[8, 8, 7, 8], [7, 8, 7, 8], [6, 6, 7, 7]], [[10, 6, 8, 3], [8, 6, 8, 3], [4, 6, 8, 3]], [[8, 1, 6, 9], [5, 1, 6, 6], [2, 1, 6, 4]], [[4, 7, 7, 9], [4, 5, 5, 9], [4, 3, 3, 9]], [[8, 5, 4, 8], [4, 4, 3, 5], [4, 3, 1, 5]], [[9, 4, 3, 7], [5, 4, 3, 5], [5, 4, 1, 1]], [[8, 4, 6, 8], [6, 3, 5, 6], [4, 3, 4, 3]], [[6, 7, 9, 5], [4, 6, 9, 4], [2, 4, 9, 2]], [[7, 9, 7, 3], [5, 8, 6, 2], [5, 8, 6, 1]], [[10, 9, 7, 6], [9, 4, 5, 4], [9, 1, 4, 2]], [[8, 4, 5, 6], [8, 3, 5, 6], [8, 3, 4, 6]], [[6, 7, 5, 9], [4, 7, 4, 7], [3, 7, 4, 5]], [[3, 6, 5, 1], [3, 5, 3, 1], [3, 5, 2, 1]], [[5, 9, 7, 10], [2, 8, 5, 9], [1, 8, 2, 9]], [[3, 6, 5, 10], [3, 6, 5, 5], [3, 6, 5, 4]], [[8, 3, 10, 6], [5, 3, 7, 6], [3, 3, 5, 6]], [[7, 7, 6, 6], [6, 6, 6, 4], [4, 3, 6, 2]], [[8, 7, 5, 10], [8, 5, 4, 8], [8, 5, 2, 8]], [[7, 9, 4, 6], [4, 7, 3, 6], [2, 7, 2, 6]], [[9, 2, 6, 3], [3, 2, 5, 1], [3, 1, 1, 1]], [[2, 7, 1, 6], [2, 6, 1, 6], [2, 6, 1, 5]], [[8, 10, 4, 10], [8, 8, 4, 4], [8, 8, 3, 3]], [[3, 9, 8, 7], [2, 9, 3, 7], [2, 7, 2, 6]], [[4, 7, 6, 5], [4, 6, 3, 2], [4, 5, 3, 2]], [[4, 8, 7, 9], [3, 6, 5, 9], [3, 6, 4, 9]], [[9, 8, 7, 6], [8, 6, 3, 5], [5, 2, 1, 3]], [[6, 4, 8, 5], [4, 3, 4, 4], [1, 2, 2, 4]], [[4, 8, 7, 8], [3, 8, 5, 6], [3, 8, 2, 6]], [[1, 10, 4, 9], [1, 7, 2, 5], [1, 6, 2, 4]], [[7, 3, 3, 9], [6, 2, 3, 6], [4, 2, 1, 5]], [[8, 8, 5, 4], [7, 4, 3, 3], [7, 4, 2, 3]], [[8, 6, 10, 1], [7, 5, 5, 1], [7, 4, 3, 1]], [[8, 9, 9, 9], [4, 4, 8, 6], [3, 1, 6, 3]], [[6, 9, 4, 3], [6, 8, 4, 2], [3, 7, 4, 1]], [[1, 7, 4, 10], [1, 5, 4, 8], [1, 5, 4, 7]], [[9, 5, 5, 10], [8, 3, 3, 9], [5, 2, 2, 9]], [[8, 6, 7, 9], [8, 3, 5, 8], [6, 3, 3, 7]], [[4, 6, 3, 8], [3, 5, 2, 7], [3, 5, 1, 4]], [[0, 0, 0, 0]]]
